c colouring generated by benchmark framework
p edge 261 430
v 1 3
v 2 0
v 3 2
v 4 0
v 5 2
v 6 1
v 7 2
v 8 1
v 9 1
v 10 2
v 11 2
v 12 1
v 13 0
v 14 3
v 15 2
v 16 1
v 17 0
v 18 0
v 19 0
v 20 1
v 21 0
v 22 0
v 23 2
v 24 2
v 25 1
v 26 2
v 27 1
v 28 2
v 29 2
v 30 2
v 31 2
v 32 0
v 33 2
v 34 0
v 35 2
v 36 3
v 37 0
v 38 0
v 39 3
v 40 0
v 41 0
v 42 0
v 43 0
v 44 0
v 45 2
v 46 0
v 47 2
v 48 1
v 49 0
v 50 2
v 51 1
v 52 1
v 53 0
v 54 1
v 55 2
v 56 2
v 57 1
v 58 2
v 59 0
v 60 1
v 61 1
v 62 1
v 63 0
v 64 0
v 65 1
v 66 0
v 67 1
v 68 0
v 69 1
v 70 2
v 71 0
v 72 1
v 73 1
v 74 0
v 75 1
v 76 1
v 77 2
v 78 0
v 79 2
v 80 0
v 81 2
v 82 0
v 83 0
v 84 0
v 85 0
v 86 1
v 87 2
v 88 1
v 89 1
v 90 0
v 91 1
v 92 0
v 93 1
v 94 2
v 95 1
v 96 1
v 97 0
v 98 0
v 99 0
v 100 0
v 101 1
v 102 0
v 103 0
v 104 2
v 105 0
v 106 2
v 107 2
v 108 0
v 109 1
v 110 1
v 111 0
v 112 0
v 113 2
v 114 1
v 115 2
v 116 1
v 117 1
v 118 1
v 119 1
v 120 0
v 121 2
v 122 1
v 123 1
v 124 0
v 125 1
v 126 0
v 127 2
v 128 2
v 129 1
v 130 2
v 131 1
v 132 3
v 133 2
v 134 2
v 135 1
v 136 0
v 137 1
v 138 2
v 139 0
v 140 0
v 141 0
v 142 2
v 143 0
v 144 2
v 145 1
v 146 0
v 147 1
v 148 2
v 149 2
v 150 0
v 151 1
v 152 2
v 153 1
v 154 1
v 155 1
v 156 0
v 157 2
v 158 2
v 159 0
v 160 1
v 161 1
v 162 1
v 163 2
v 164 0
v 165 1
v 166 1
v 167 0
v 168 0
v 169 2
v 170 1
v 171 2
v 172 1
v 173 0
v 174 0
v 175 1
v 176 1
v 177 0
v 178 1
v 179 2
v 180 0
v 181 1
v 182 1
v 183 1
v 184 2
v 185 2
v 186 1
v 187 1
v 188 2
v 189 1
v 190 1
v 191 0
v 192 2
v 193 0
v 194 0
v 195 0
v 196 2
v 197 1
v 198 0
v 199 1
v 200 0
v 201 1
v 202 1
v 203 2
v 204 2
v 205 0
v 206 1
v 207 0
v 208 1
v 209 1
v 210 1
v 211 2
v 212 0
v 213 0
v 214 2
v 215 3
v 216 0
v 217 2
v 218 2
v 219 1
v 220 2
v 221 0
v 222 0
v 223 0
v 224 1
v 225 0
v 226 2
v 227 0
v 228 0
v 229 0
v 230 1
v 231 0
v 232 2
v 233 0
v 234 2
v 235 0
v 236 1
v 237 1
v 238 0
v 239 0
v 240 1
v 241 2
v 242 1
v 243 1
v 244 2
v 245 1
v 246 1
v 247 0
v 248 0
v 249 2
v 250 2
v 251 0
v 252 1
v 253 1
v 254 1
v 255 0
v 256 0
v 257 2
v 258 1
v 259 1
v 260 1
v 261 0
